120
150
20
90
38
38
95
51
84
37
35
68
51
88
41
50
60
88
55
95
62
74
28
91
31
58
85
71
68
55
96
20
84
66
21
66
63
61
89
87
55
84
28
38
38
43
30
52
96
22
45
52
31
43
78
29
31
35
20
63
39
57
54
70
74
43
30
50
85
62
68
92
58
63
35
52
92
58
72
78
74
30
54
58
38
72
78
55
52
43
71
70
44
63
43
52
95
90
51
90
51
30
89
31
91
56
43
88
56
95
55
74
74
43
41
88
62
54
96
70
88
62
